
Gurobi 9.5.1 (linux64) logging started Sat Apr 16 06:08:10 2022

Set parameter LogFile to value "../results/logs/log_soc-pokec-relationships_20_20_2022_04_16_01_10.log"
Gurobi Optimizer version 9.5.1 build v9.5.1rc2 (linux64)
Thread count: 8 physical cores, 8 logical processors, using up to 8 threads
Optimize a model with 3265607 rows, 3265606 columns and 95739068 nonzeros
Model fingerprint: 0x4ad4f464
Variable types: 0 continuous, 3265606 integer (3265606 binary)
Coefficient statistics:
  Matrix range     [1e+00, 2e+01]
  Objective range  [1e+00, 1e+00]
  Bounds range     [1e+00, 1e+00]
  RHS range        [1e+00, 2e+01]
Found heuristic solution: objective -0.0000000
Presolve removed 0 rows and 0 columns (presolve time = 7s) ...
Presolve removed 0 rows and 0 columns (presolve time = 14s) ...
Presolve removed 0 rows and 0 columns (presolve time = 16s) ...
Presolve removed 0 rows and 0 columns (presolve time = 22s) ...
Presolve removed 0 rows and 0 columns (presolve time = 29s) ...
Presolve removed 1401118 rows and 700559 columns (presolve time = 31s) ...
Presolve removed 1401118 rows and 700559 columns (presolve time = 36s) ...
Presolve removed 1401118 rows and 753725 columns (presolve time = 43s) ...
Presolve removed 1445202 rows and 753725 columns (presolve time = 48s) ...
Presolve removed 1445202 rows and 753725 columns (presolve time = 57s) ...
Presolve removed 1445202 rows and 761792 columns (presolve time = 63s) ...
Presolve removed 1447796 rows and 761792 columns (presolve time = 68s) ...
Presolve removed 1447796 rows and 761792 columns (presolve time = 71s) ...
Presolve removed 1447796 rows and 762140 columns (presolve time = 76s) ...
Presolve removed 1447937 rows and 762140 columns (presolve time = 80s) ...
Presolve removed 1447954 rows and 762164 columns (presolve time = 87s) ...
Presolve removed 1447957 rows and 762164 columns (presolve time = 94s) ...
Presolve removed 1447957 rows and 824958 columns (presolve time = 112s) ...
Presolve removed 1447957 rows and 824958 columns (presolve time = 119s) ...
Presolve removed 1447957 rows and 824958 columns (presolve time = 128s) ...
Presolve removed 1447957 rows and 824958 columns (presolve time = 137s) ...
Presolve removed 1447957 rows and 824958 columns (presolve time = 140s) ...
Presolve removed 1447957 rows and 824961 columns (presolve time = 145s) ...
Presolve removed 1447957 rows and 824962 columns (presolve time = 150s) ...
Presolve removed 1447957 rows and 824963 columns (presolve time = 155s) ...
Presolve removed 1447957 rows and 824963 columns (presolve time = 170s) ...
Presolve removed 1447957 rows and 824963 columns (presolve time = 178s) ...
Presolve removed 1447957 rows and 824963 columns (presolve time = 186s) ...
Presolve removed 1447957 rows and 824963 columns (presolve time = 196s) ...
Presolve removed 1447957 rows and 824963 columns (presolve time = 200s) ...
Presolve removed 1447957 rows and 824963 columns (presolve time = 205s) ...
Presolve removed 1447957 rows and 1073461 columns (presolve time = 218s) ...
Presolve removed 1447957 rows and 1073461 columns (presolve time = 220s) ...
Presolve removed 1447957 rows and 1073461 columns (presolve time = 225s) ...
Presolve removed 1447957 rows and 1073461 columns (presolve time = 232s) ...
Presolve removed 1447957 rows and 1073461 columns (presolve time = 235s) ...
Presolve removed 1447957 rows and 1073461 columns (presolve time = 240s) ...
Presolve removed 1447957 rows and 1073461 columns (presolve time = 245s) ...
Presolve removed 1447957 rows and 1073461 columns (presolve time = 250s) ...
Presolve removed 1447957 rows and 1073461 columns (presolve time = 255s) ...
Presolve removed 1447957 rows and 1073461 columns (presolve time = 260s) ...
Presolve removed 1447957 rows and 1073461 columns (presolve time = 265s) ...
Presolve removed 1447995 rows and 1073461 columns (presolve time = 273s) ...
Presolve removed 1944954 rows and 1073461 columns (presolve time = 278s) ...
Presolve removed 1944954 rows and 1073461 columns (presolve time = 280s) ...
Presolve removed 1944954 rows and 1073461 columns (presolve time = 286s) ...
Presolve removed 1944954 rows and 1073461 columns (presolve time = 290s) ...
Presolve removed 1944954 rows and 1073461 columns (presolve time = 299s) ...
Presolve removed 1944954 rows and 1073461 columns (presolve time = 304s) ...
Presolve removed 1944954 rows and 1122007 columns (presolve time = 321s) ...
Presolve removed 1944954 rows and 1122007 columns (presolve time = 326s) ...
Presolve removed 1944954 rows and 1122007 columns (presolve time = 335s) ...
Presolve removed 1944954 rows and 1122007 columns (presolve time = 342s) ...
Presolve removed 1944954 rows and 1122007 columns (presolve time = 345s) ...
Presolve removed 1944954 rows and 1122007 columns (presolve time = 359s) ...
Presolve removed 1944954 rows and 1122007 columns (presolve time = 364s) ...
Presolve removed 1944954 rows and 1122007 columns (presolve time = 372s) ...
Presolve removed 1944954 rows and 1122007 columns (presolve time = 380s) ...
Presolve removed 1944954 rows and 1122007 columns (presolve time = 380s) ...
Presolve removed 1944954 rows and 1122007 columns (presolve time = 385s) ...
Presolve removed 1944954 rows and 1122007 columns (presolve time = 396s) ...
Presolve removed 1944954 rows and 1122007 columns (presolve time = 400s) ...
Presolve removed 1944954 rows and 1122007 columns (presolve time = 405s) ...
Presolve removed 1944954 rows and 1122008 columns (presolve time = 413s) ...
Presolve removed 1944954 rows and 1122010 columns (presolve time = 418s) ...
Presolve removed 1944956 rows and 1122010 columns (presolve time = 423s) ...
Presolve removed 1944956 rows and 1122010 columns (presolve time = 427s) ...
Presolve removed 1944956 rows and 1122010 columns (presolve time = 436s) ...
Presolve removed 1944956 rows and 1122010 columns (presolve time = 452s) ...
Presolve removed 1944956 rows and 1122010 columns (presolve time = 458s) ...
Presolve removed 1944956 rows and 1122010 columns (presolve time = 466s) ...
Presolve removed 1944956 rows and 1122010 columns (presolve time = 473s) ...
Presolve removed 1944956 rows and 1122010 columns (presolve time = 475s) ...
Presolve removed 1944956 rows and 1122010 columns (presolve time = 480s) ...
Presolve removed 1944956 rows and 1122010 columns (presolve time = 485s) ...
Presolve removed 1944956 rows and 1122012 columns (presolve time = 490s) ...
Presolve removed 1944956 rows and 1122012 columns (presolve time = 502s) ...
Presolve removed 1944956 rows and 1122012 columns (presolve time = 507s) ...
Presolve removed 1944956 rows and 1122012 columns (presolve time = 514s) ...
Presolve removed 1944956 rows and 1122012 columns (presolve time = 523s) ...
Presolve removed 1944956 rows and 1122012 columns (presolve time = 525s) ...
Presolve removed 1944956 rows and 1122012 columns (presolve time = 530s) ...
Presolve removed 1944956 rows and 1122012 columns (presolve time = 539s) ...
Presolve removed 1944956 rows and 1122012 columns (presolve time = 540s) ...
Presolve removed 1944956 rows and 1122012 columns (presolve time = 545s) ...
Presolve removed 1944956 rows and 1122012 columns (presolve time = 550s) ...
Presolve removed 1944956 rows and 1122012 columns (presolve time = 558s) ...
Presolve removed 1944956 rows and 1122012 columns (presolve time = 564s) ...
Presolve removed 1944956 rows and 1122012 columns (presolve time = 565s) ...
Presolve removed 1944956 rows and 1122012 columns (presolve time = 570s) ...
Presolve removed 1944956 rows and 1122012 columns (presolve time = 575s) ...
Presolve removed 1944956 rows and 1122012 columns (presolve time = 580s) ...
Presolve removed 1944956 rows and 1122012 columns (presolve time = 585s) ...
Presolve removed 1944956 rows and 1122012 columns (presolve time = 593s) ...
Presolve removed 1944956 rows and 1122012 columns (presolve time = 596s) ...
Presolve removed 1944956 rows and 1122012 columns (presolve time = 600s) ...
Presolve removed 1944956 rows and 1122012 columns (presolve time = 607s) ...
Presolve removed 1944956 rows and 1122012 columns (presolve time = 620s) ...
Presolve removed 1944956 rows and 1122012 columns (presolve time = 621s) ...
Presolve removed 1944956 rows and 1122012 columns (presolve time = 631s) ...
Presolve removed 1944955 rows and 1122011 columns
Presolve time: 630.87s
Presolved: 1320652 rows, 2143595 columns, 74486605 nonzeros
Variable types: 0 continuous, 2143595 integer (2106451 binary)

Deterministic concurrent LP optimizer: primal simplex, dual simplex, and barrier
Showing barrier log only...

